NAME: smoke_20
TYPE: TSP
DIMENSION: 20
First 15 matrix elements:
0 6 5 3 11 8 7 1 12 8 26 5 5 5 7 

Greedy nearest-neighbor result:
Tour length: 80
Tour (0-based indices):
8 9 18 6 5 19 4 14 13 11 12 15 0 7 3 17 16 1 2 10 8

GPU tour length evaluation:
Tour 0 GPU length = 80
Tour 1 GPU length = 80
Tour 2 GPU length = 80
Tour 3 GPU length = 80

CPU cross-check:
Tour 0 CPU length = 80, GPU length = 80  [MATCH]
Tour 1 CPU length = 80, GPU length = 80  [MATCH]
Tour 2 CPU length = 80, GPU length = 80  [MATCH]
Tour 3 CPU length = 80, GPU length = 80  [MATCH]
	Command being timed: "./build/GPU-Naive sequential/tests/fixtures/smoke_20.tsp"
	User time (seconds): 0.00
	System time (seconds): 0.10
	Percent of CPU this job got: 87%
	Elapsed (wall clock) time (h:mm:ss or m:ss): 0:00.13
	Average shared text size (kbytes): 0
	Average unshared data size (kbytes): 0
	Average stack size (kbytes): 0
	Average total size (kbytes): 0
	Maximum resident set size (kbytes): 121920
	Average resident set size (kbytes): 0
	Major (requiring I/O) page faults: 1
	Minor (reclaiming a frame) page faults: 5459
	Voluntary context switches: 69
	Involuntary context switches: 4
	Swaps: 0
	File system inputs: 1688
	File system outputs: 8
	Socket messages sent: 0
	Socket messages received: 0
	Signals delivered: 0
	Page size (bytes): 4096
	Exit status: 0
